[2026-03-23T16:03:01.296Z] Pipeline "set_exp_3_exp_3_n026_c003_g001" → 2026_03_23_16_03_01_set_exp_3_exp_3_n026_c003_g001_max.sol
Set parameter WLSAccessID
Set parameter WLSSecret
Set parameter LicenseID to value 2792458
Set parameter LogFile to value "gurobi.log"
Using license file /root/gurobi.lic
Academic license 2792458 - for non-commercial use only - registered to an___@studenti.unipg.it

Gurobi Optimizer version 13.0.1 build v13.0.1rc0 (linux64 - "Ubuntu 24.04.4 LTS")
Copyright (c) 2026, Gurobi Optimization, LLC

Warning: Duplicate section found (read 'binary') - Is a variable name equal to an LP file format keyword?
Warning: Duplicate section found (read 'binary') - Is a variable name equal to an LP file format keyword?
Warning: Duplicate section found (read 'binary') - Is a variable name equal to an LP file format keyword?
Warning: Duplicate section found (read 'binary') - Is a variable name equal to an LP file format keyword?
Warning: Duplicate section found (read 'binary') - Is a variable name equal to an LP file format keyword?
Warning: Duplicate section found (read 'binary') - Is a variable name equal to an LP file format keyword?
Warning: Duplicate section found (read 'binary') - Is a variable name equal to an LP file format keyword?
Warning: Duplicate section found (read 'binary') - Is a variable name equal to an LP file format keyword?
Warning: Duplicate section found (read 'binary') - Is a variable name equal to an LP file format keyword?
Warning: Duplicate section found (read 'binary') - Is a variable name equal to an LP file format keyword?
Warning: Further warnings of this type will be omitted.
Read LP format model from file /root/bgw/data/uploads/2026_03_23_16_03_01_set_exp_3_exp_3_n026_c003_g001_max.lp
Reading time = 0.01 seconds
: 5853 rows, 478 columns, 17547 nonzeros

Using Gurobi shared library /opt/gurobi1301/linux64/lib/libgurobi.so.13.0.1

CPU model: AMD EPYC-Genoa Processor, instruction set [SSE2|AVX|AVX2|AVX512]
Thread count: 16 physical cores, 16 logical processors, using up to 16 threads

Academic license 2792458 - for non-commercial use only - registered to an___@studenti.unipg.it
Optimize a model with 5853 rows, 478 columns and 17547 nonzeros (Max)
Model fingerprint: 0x7f019269
Model has 7 linear objective coefficients
Variable types: 33 continuous, 445 integer (445 binary)
Coefficient statistics:
  Matrix range     [1e+00, 3e+01]
  Objective range  [1e+00, 1e+00]
  Bounds range     [1e+00, 1e+00]
  RHS range        [1e+00, 3e+01]

Found heuristic solution: objective 7.0000000
Presolve removed 627 rows and 137 columns
Presolve time: 0.03s
Presolved: 5226 rows, 341 columns, 15816 nonzeros
Variable types: 0 continuous, 341 integer (335 binary)

Root relaxation: objective 3.100000e+01, 177 iterations, 0.01 seconds (0.01 work units)

    Nodes    |    Current Node    |     Objective Bounds      |     Work
 Expl Unexpl |  Obj  Depth IntInf | Incumbent    BestBd   Gap | It/Node Time

     0     0   31.00000    0   23    7.00000   31.00000   343%     -    0s
H    0     0                      17.0000000   31.00000  82.4%     -    0s
H    0     0                      18.0000000   31.00000  72.2%     -    0s
H    0     0                      19.0000000   31.00000  63.2%     -    0s
H    0     0                      20.0000000   31.00000  55.0%     -    0s
     0     0   31.00000    0   23   20.00000   31.00000  55.0%     -    0s
     0     0   31.00000    0   19   20.00000   31.00000  55.0%     -    0s
     0     0   31.00000    0   15   20.00000   31.00000  55.0%     -    0s
     0     0   31.00000    0   19   20.00000   31.00000  55.0%     -    0s
     0     0   31.00000    0   14   20.00000   31.00000  55.0%     -    0s
     0     0   30.00000    0   17   20.00000   30.00000  50.0%     -    0s
     0     0   30.00000    0   17   20.00000   30.00000  50.0%     -    0s
     0     0   29.00000    0   20   20.00000   29.00000  45.0%     -    0s
     0     0   29.00000    0   17   20.00000   29.00000  45.0%     -    0s
     0     0   29.00000    0   19   20.00000   29.00000  45.0%     -    0s
     0     0   29.00000    0   18   20.00000   29.00000  45.0%     -    0s
     0     0   29.00000    0   17   20.00000   29.00000  45.0%     -    0s
     0     0   29.00000    0   17   20.00000   29.00000  45.0%     -    0s
     0     0   29.00000    0   17   20.00000   29.00000  45.0%     -    0s
     0     0   29.00000    0   17   20.00000   29.00000  45.0%     -    0s
     0     2   29.00000    0   14   20.00000   29.00000  45.0%     -    0s

Cutting planes:
  Cover: 2
  Zero half: 2

Explored 452 nodes (24021 simplex iterations) in 0.94 seconds (0.90 work units)
Thread count was 16 (of 16 available processors)

Solution count 5: 20 19 18 ... 7

Optimal solution found (tolerance 1.00e-04)
Best objective 2.000000000000e+01, best bound 2.000000000000e+01, gap 0.0000%

Wrote result file '/root/bgw/data/results/2026_03_23_16_03_01_set_exp_3_exp_3_n026_c003_g001_max.sol'

